NAME: tsp_77
COMMENT: Random TSP instance
TYPE: TSP
DIMENSION: 50
EDGE_WEIGHT_TYPE: EUC_2D
NODE_COORD_SECTION
1 700 149
2 136 10
3 663 50
4 483 307
5 511 365
6 782 689
7 703 573
8 740 966
9 625 831
10 768 934
11 243 268
12 509 944
13 915 328
14 348 559
15 233 234
16 705 116
17 512 421
18 353 953
19 822 541
20 757 364
21 838 522
22 34 981
23 125 939
24 508 630
25 68 957
26 786 436
27 291 807
28 495 807
29 110 702
30 394 58
31 824 885
32 453 237
33 608 357
34 572 998
35 934 798
36 606 597
37 999 567
38 103 421
39 117 462
40 628 495
41 888 869
42 49 926
43 343 747
44 838 762
45 443 821
46 956 959
47 539 654
48 989 206
49 789 572
50 10 561
